NAME          
ROWS
 N  OBJ
 L  c1
 L  c2
 L  c3
COLUMNS
    MARKER    'MARKER'                 'INTORG'
    x[1]      c1        350
    x[1]      c2        262
    x[1]      c3        676
    x[1]      OBJ       -708
    x[2]      c1        947
    x[2]      c2        795
    x[2]      c3        420
    x[2]      OBJ       -114
    x[3]      c1        762
    x[3]      c2        163
    x[3]      c3        484
    x[3]      OBJ       -69
    x[4]      c1        71
    x[4]      c2        843
    x[4]      c3        780
    x[4]      OBJ       -929
    x[5]      c1        271
    x[5]      c2        714
    x[5]      c3        40
    x[5]      OBJ       -974
    x[6]      c1        76
    x[6]      c2        57
    x[6]      c3        363
    x[6]      OBJ       -795
    x[7]      c1        544
    x[7]      c2        851
    x[7]      c3        140
    x[7]      OBJ       -801
    x[8]      c1        844
    x[8]      c2        863
    x[8]      c3        90
    x[8]      OBJ       -934
    x[9]      c1        219
    x[9]      c2        335
    x[9]      c3        314
    x[9]      OBJ       -946
    x[10]     c1        120
    x[10]     c2        686
    x[10]     c3        112
    x[10]     OBJ       -258
    x[11]     c1        348
    x[11]     c2        356
    x[11]     c3        471
    x[11]     OBJ       -209
    x[12]     c1        312
    x[12]     c2        425
    x[12]     c3        456
    x[12]     OBJ       -911
    x[13]     c1        336
    x[13]     c2        102
    x[13]     c3        855
    x[13]     OBJ       -486
    x[14]     c1        765
    x[14]     c2        240
    x[14]     c3        768
    x[14]     OBJ       -75
    x[15]     c1        429
    x[15]     c2        954
    x[15]     c3        75
    x[15]     OBJ       -561
    x[16]     c1        839
    x[16]     c2        101
    x[16]     c3        924
    x[16]     OBJ       -585
    x[17]     c1        936
    x[17]     c2        179
    x[17]     c3        825
    x[17]     OBJ       -455
    x[18]     c1        503
    x[18]     c2        252
    x[18]     c3        55
    x[18]     OBJ       -569
    x[19]     c1        825
    x[19]     c2        226
    x[19]     c3        262
    x[19]     OBJ       -848
    x[20]     c1        427
    x[20]     c2        57
    x[20]     c3        542
    x[20]     OBJ       -720
    x[21]     c1        646
    x[21]     c2        614
    x[21]     c3        329
    x[21]     OBJ       -882
    x[22]     c1        533
    x[22]     c2        702
    x[22]     c3        838
    x[22]     OBJ       -259
    x[23]     c1        213
    x[23]     c2        961
    x[23]     c3        946
    x[23]     OBJ       -152
    x[24]     c1        405
    x[24]     c2        797
    x[24]     c3        262
    x[24]     OBJ       -404
    x[25]     c1        509
    x[25]     c2        996
    x[25]     c3        570
    x[25]     OBJ       -744
RHS
    rhs       c1        6115
    rhs       c2        6266
    rhs       c3        5798
RANGES
BOUNDS
 LO bounds    x[1]      0
 PL bounds    x[1]
 LO bounds    x[2]      0
 PL bounds    x[2]
 LO bounds    x[3]      0
 PL bounds    x[3]
 LO bounds    x[4]      0
 PL bounds    x[4]
 LO bounds    x[5]      0
 PL bounds    x[5]
 LO bounds    x[6]      0
 PL bounds    x[6]
 LO bounds    x[7]      0
 PL bounds    x[7]
 LO bounds    x[8]      0
 PL bounds    x[8]
 LO bounds    x[9]      0
 PL bounds    x[9]
 LO bounds    x[10]     0
 PL bounds    x[10]
 LO bounds    x[11]     0
 PL bounds    x[11]
 LO bounds    x[12]     0
 PL bounds    x[12]
 LO bounds    x[13]     0
 PL bounds    x[13]
 LO bounds    x[14]     0
 PL bounds    x[14]
 LO bounds    x[15]     0
 PL bounds    x[15]
 LO bounds    x[16]     0
 PL bounds    x[16]
 LO bounds    x[17]     0
 PL bounds    x[17]
 LO bounds    x[18]     0
 PL bounds    x[18]
 LO bounds    x[19]     0
 PL bounds    x[19]
 LO bounds    x[20]     0
 PL bounds    x[20]
 LO bounds    x[21]     0
 PL bounds    x[21]
 LO bounds    x[22]     0
 PL bounds    x[22]
 LO bounds    x[23]     0
 PL bounds    x[23]
 LO bounds    x[24]     0
 PL bounds    x[24]
 LO bounds    x[25]     0
 PL bounds    x[25]
ENDATA
